p cnf 903
-15 -281
-16 -284
-17 -287
-18 -290
-19 -293
-20 -296
-21 -299
-22 -302
-23 -305
-24 -308
-25 -311
-26 -314
-27 -317
-28 -320
-29 321
-30 322
-31 323
-32 324
-33 325
-34 326
-35 -16
-35 -17
16 17 35
-36 -18
-36 -19
18 19 36
-37 -20
-37 -21
20 21 37
-38 -22
-38 -23
22 23 38
-39 -24
-39 -25
24 25 39
-40 -26
-40 -27
26 27 40
-41 -28
-41 -29
28 29 41
-42 -30
-42 -31
30 31 42
-43 -32
-43 -33
32 33 43
-44 35
-44 36
-35 -36 44
-45 37
-45 38
-37 -38 45
-46 39
-46 40
-39 -40 46
-47 41
-47 42
-41 -42 47
-48 -34
-48 43
34 -43 48
-49 44
-49 45
-44 -45 49
-50 46
-50 47
-46 -47 50
-51 49
-51 50
-49 -50 51
-52 48
-52 51
-48 -51 52
-53 -15
-53 16
15 -16 53
-54 15
-54 -16
-15 16 54
-55 -53
-55 -54
53 54 55
-56 15
-56 16
-15 -16 56
-57 -15
-57 -55
15 55 57
-58 15
-58 55
-15 -55 58
-59 -57
-59 -58
57 58 59
-60 15
-60 -55
-15 55 60
-61 -56
-61 -60
56 60 61
-62 -16
-62 17
16 -17 62
-63 16
-63 -17
-16 17 63
-64 -62
-64 -63
62 63 64
-65 16
-65 17
-16 -17 65
-66 61
-66 -64
-61 64 66
-67 -61
-67 64
61 -64 67
-68 -66
-68 -67
66 67 68
-69 -61
-69 -64
61 64 69
-70 -65
-70 -69
65 69 70
-71 -17
-71 18
17 -18 71
-72 17
-72 -18
-17 18 72
-73 -71
-73 -72
71 72 73
-74 17
-74 18
-17 -18 74
-75 70
-75 -73
-70 73 75
-76 -70
-76 73
70 -73 76
-77 -75
-77 -76
75 76 77
-78 -70
-78 -73
70 73 78
-79 -74
-79 -78
74 78 79
-80 -18
-80 19
18 -19 80
-81 18
-81 -19
-18 19 81
-82 -80
-82 -81
80 81 82
-83 18
-83 19
-18 -19 83
-84 79
-84 -82
-79 82 84
-85 -79
-85 82
79 -82 85
-86 -84
-86 -85
84 85 86
-87 -79
-87 -82
79 82 87
-88 -83
-88 -87
83 87 88
-89 -19
-89 20
19 -20 89
-90 19
-90 -20
-19 20 90
-91 -89
-91 -90
89 90 91
-92 19
-92 20
-19 -20 92
-93 88
-93 -91
-88 91 93
-94 -88
-94 91
88 -91 94
-95 -93
-95 -94
93 94 95
-96 -88
-96 -91
88 91 96
-97 -92
-97 -96
92 96 97
-98 -20
-98 21
20 -21 98
-99 20
-99 -21
-20 21 99
-100 -98
-100 -99
98 99 100
-101 20
-101 21
-20 -21 101
-102 97
-102 -100
-97 100 102
-103 -97
-103 100
97 -100 103
-104 -102
-104 -103
102 103 104
-105 -97
-105 -100
97 100 105
-106 -101
-106 -105
101 105 106
-107 -21
-107 22
21 -22 107
-108 21
-108 -22
-21 22 108
-109 -107
-109 -108
107 108 109
-110 21
-110 22
-21 -22 110
-111 106
-111 -109
-106 109 111
-112 -106
-112 109
106 -109 112
-113 -111
-113 -112
111 112 113
-114 -106
-114 -109
106 109 114
-115 -110
-115 -114
110 114 115
-116 -22
-116 23
22 -23 116
-117 22
-117 -23
-22 23 117
-118 -116
-118 -117
116 117 118
-119 22
-119 23
-22 -23 119
-120 115
-120 -118
-115 118 120
-121 -115
-121 118
115 -118 121
-122 -120
-122 -121
120 121 122
-123 -115
-123 -118
115 118 123
-124 -119
-124 -123
119 123 124
-125 -23
-125 24
23 -24 125
-126 23
-126 -24
-23 24 126
-127 -125
-127 -126
125 126 127
-128 23
-128 24
-23 -24 128
-129 124
-129 -127
-124 127 129
-130 -124
-130 127
124 -127 130
-131 -129
-131 -130
129 130 131
-132 -124
-132 -127
124 127 132
-133 -128
-133 -132
128 132 133
-134 -24
-134 25
24 -25 134
-135 24
-135 -25
-24 25 135
-136 -134
-136 -135
134 135 136
-137 24
-137 25
-24 -25 137
-138 133
-138 -136
-133 136 138
-139 -133
-139 136
133 -136 139
-140 -138
-140 -139
138 139 140
-141 -133
-141 -136
133 136 141
-142 -137
-142 -141
137 141 142
-143 -25
-143 26
25 -26 143
-144 25
-144 -26
-25 26 144
-145 -143
-145 -144
143 144 145
-146 25
-146 26
-25 -26 146
-147 142
-147 -145
-142 145 147
-148 -142
-148 145
142 -145 148
-149 -147
-149 -148
147 148 149
-150 -142
-150 -145
142 145 150
-151 -146
-151 -150
146 150 151
-152 -26
-152 27
26 -27 152
-153 26
-153 -27
-26 27 153
-154 -152
-154 -153
152 153 154
-155 26
-155 27
-26 -27 155
-156 151
-156 -154
-151 154 156
-157 -151
-157 154
151 -154 157
-158 -156
-158 -157
156 157 158
-159 -151
-159 -154
151 154 159
-160 -155
-160 -159
155 159 160
-161 -27
-161 28
27 -28 161
-162 27
-162 -28
-27 28 162
-163 -161
-163 -162
161 162 163
-164 27
-164 28
-27 -28 164
-165 160
-165 -163
-160 163 165
-166 -160
-166 163
160 -163 166
-167 -165
-167 -166
165 166 167
-168 -160
-168 -163
160 163 168
-169 -164
-169 -168
164 168 169
-170 -28
-170 29
28 -29 170
-171 28
-171 -29
-28 29 171
-172 -170
-172 -171
170 171 172
-173 28
-173 29
-28 -29 173
-174 169
-174 -172
-169 172 174
-175 -169
-175 172
169 -172 175
-176 -174
-176 -175
174 175 176
-177 -169
-177 -172
169 172 177
-178 -173
-178 -177
173 177 178
-179 -29
-179 30
29 -30 179
-180 29
-180 -30
-29 30 180
-181 -179
-181 -180
179 180 181
-182 29
-182 30
-29 -30 182
-183 178
-183 -181
-178 181 183
-184 -178
-184 181
178 -181 184
-185 -183
-185 -184
183 184 185
-186 -178
-186 -181
178 181 186
-187 -182
-187 -186
182 186 187
-188 -30
-188 31
30 -31 188
-189 30
-189 -31
-30 31 189
-190 -188
-190 -189
188 189 190
-191 30
-191 31
-30 -31 191
-192 187
-192 -190
-187 190 192
-193 -187
-193 190
187 -190 193
-194 -192
-194 -193
192 193 194
-195 -187
-195 -190
187 190 195
-196 -191
-196 -195
191 195 196
-197 -31
-197 32
31 -32 197
-198 31
-198 -32
-31 32 198
-199 -197
-199 -198
197 198 199
-200 31
-200 32
-31 -32 200
-201 196
-201 -199
-196 199 201
-202 -196
-202 199
196 -199 202
-203 -201
-203 -202
201 202 203
-204 -196
-204 -199
196 199 204
-205 -200
-205 -204
200 204 205
-206 -32
-206 33
32 -33 206
-207 32
-207 -33
-32 33 207
-208 -206
-208 -207
206 207 208
-209 32
-209 33
-32 -33 209
-210 205
-210 -208
-205 208 210
-211 -205
-211 208
205 -208 211
-212 -210
-212 -211
210 211 212
-213 -205
-213 -208
205 208 213
-214 -209
-214 -213
209 213 214
-215 -33
-215 34
33 -34 215
-216 33
-216 -34
-33 34 216
-217 -215
-217 -216
215 216 217
-218 33
-218 34
-33 -34 218
-219 214
-219 -217
-214 217 219
-220 -214
-220 217
214 -217 220
-221 -219
-221 -220
219 220 221
-222 -214
-222 -217
214 217 222
-223 -218
-223 -222
218 222 223
-224 15
-224 -59
-15 59 224
-225 -15
-225 17
15 -17 225
-226 -224
-226 -225
224 225 226
-227 15
-227 -68
-15 68 227
-228 -15
-228 18
15 -18 228
-229 -227
-229 -228
227 228 229
-230 15
-230 -77
-15 77 230
-231 -15
-231 19
15 -19 231
-232 -230
-232 -231
230 231 232
-233 15
-233 -86
-15 86 233
-234 -15
-234 20
15 -20 234
-235 -233
-235 -234
233 234 235
-236 15
-236 -95
-15 95 236
-237 -15
-237 21
15 -21 237
-238 -236
-238 -237
236 237 238
-239 15
-239 -104
-15 104 239
-240 -15
-240 22
15 -22 240
-241 -239
-241 -240
239 240 241
-242 15
-242 -113
-15 113 242
-243 -15
-243 23
15 -23 243
-244 -242
-244 -243
242 243 244
-245 15
-245 -122
-15 122 245
-246 -15
-246 24
15 -24 246
-247 -245
-247 -246
245 246 247
-248 15
-248 -131
-15 131 248
-249 -15
-249 25
15 -25 249
-250 -248
-250 -249
248 249 250
-251 15
-251 -140
-15 140 251
-252 -15
-252 26
15 -26 252
-253 -251
-253 -252
251 252 253
-254 15
-254 -149
-15 149 254
-255 -15
-255 27
15 -27 255
-256 -254
-256 -255
254 255 256
-257 15
-257 -158
-15 158 257
-258 -15
-258 28
15 -28 258
-259 -257
-259 -258
257 258 259
-260 15
-260 -167
-15 167 260
-261 -15
-261 29
15 -29 261
-262 -260
-262 -261
260 261 262
-263 15
-263 -176
-15 176 263
-264 -15
-264 30
15 -30 264
-265 -263
-265 -264
263 264 265
-266 15
-266 -185
-15 185 266
-267 -15
-267 31
15 -31 267
-268 -266
-268 -267
266 267 268
-269 15
-269 -194
-15 194 269
-270 -15
-270 32
15 -32 270
-271 -269
-271 -270
269 270 271
-272 15
-272 -203
-15 203 272
-273 -15
-273 33
15 -33 273
-274 -272
-274 -273
272 273 274
-275 15
-275 -212
-15 212 275
-276 -15
-276 34
15 -34 276
-277 -275
-277 -276
275 276 277
-278 15
-278 -221
-15 221 278
-279 1
-279 52
-1 -52 279
-280 -52
-280 53
52 -53 280
-281 -279
-281 -280
279 280 281
-282 2
-282 52
-2 -52 282
-283 -52
-283 -226
52 226 283
-284 -282
-284 -283
282 283 284
-285 3
-285 52
-3 -52 285
-286 -52
-286 -229
52 229 286
-287 -285
-287 -286
285 286 287
-288 4
-288 52
-4 -52 288
-289 -52
-289 -232
52 232 289
-290 -288
-290 -289
288 289 290
-291 5
-291 52
-5 -52 291
-292 -52
-292 -235
52 235 292
-293 -291
-293 -292
291 292 293
-294 6
-294 52
-6 -52 294
-295 -52
-295 -238
52 238 295
-296 -294
-296 -295
294 295 296
-297 7
-297 52
-7 -52 297
-298 -52
-298 -241
52 241 298
-299 -297
-299 -298
297 298 299
-300 8
-300 52
-8 -52 300
-301 -52
-301 -244
52 244 301
-302 -300
-302 -301
300 301 302
-303 9
-303 52
-9 -52 303
-304 -52
-304 -247
52 247 304
-305 -303
-305 -304
303 304 305
-306 10
-306 52
-10 -52 306
-307 -52
-307 -250
52 250 307
-308 -306
-308 -307
306 307 308
-309 11
-309 52
-11 -52 309
-310 -52
-310 -253
52 253 310
-311 -309
-311 -310
309 310 311
-312 12
-312 52
-12 -52 312
-313 -52
-313 -256
52 256 313
-314 -312
-314 -313
312 313 314
-315 13
-315 52
-13 -52 315
-316 -52
-316 -259
52 259 316
-317 -315
-317 -316
315 316 317
-318 14
-318 52
-14 -52 318
-319 -52
-319 -262
52 262 319
-320 -318
-320 -319
318 319 320
-321 -52
-321 -265
52 265 321
-322 -52
-322 -268
52 268 322
-323 -52
-323 -271
52 271 323
-324 -52
-324 -274
52 274 324
-325 -52
-325 -277
52 277 325
-326 -52
-326 278
52 -278 326
-327 -34
-327 223
34 -223 327
-328 15
-328 -327
-15 327 328
328
